c CNF generator v0.9
p cnf 50 50
10 25 -20 0
6 46 22 0
36 19 13 0
-11 -46 49 0
22 23 39 0
-17 17 17 0
12 48 10 0
-28 -32 23 0
42 1 -33 0
-31 39 -28 0
-5 -50 -16 0
31 -9 19 0
-8 19 27 0
25 44 41 0
41 -5 -30 0
41 22 -15 0
19 -30 37 0
-26 -20 -32 0
-35 38 -37 0
34 7 -36 0
-47 44 -32 0
15 -8 -6 0
-14 22 -42 0
22 25 -47 0
23 32 32 0
15 25 11 0
-22 49 -50 0
36 -1 8 0
-5 31 45 0
-49 20 30 0
-25 1 40 0
-20 15 16 0
-24 -30 -3 0
-16 1 42 0
-23 -28 8 0
-32 -16 41 0
19 -24 -31 0
-19 -46 -11 0
22 31 -35 0
-36 -35 37 0
-43 33 3 0
4 18 19 0
-9 23 34 0
-19 32 -39 0
28 -31 -23 0
-2 12 -23 0
-9 -7 45 0
-22 28 -27 0
7 8 -12 0
27 -24 -44 0
